10
10
874976
0
0
41 39 43 41 37 39 40 39 38 37
1
0
45 47 46 45 45 44 44 42 46 44
2
0
60 59 56 56 58 61 60 57 58 57
3
0
57 55 58 55 59 52 60 58 53 54
4
0
33 33 35 32 35 33 37 33 37 33
5
0
64 66 69 69 67 69 67 64 64 67
6
0
47 49 48 50 48 47 48 50 48 48
7
0
36 35 39 41 38 40 38 38 37 42
8
0
74 75 75 70 74 70 70 76 73 69
9
0
42 40 37 39 39 38 43 41 34 37
